(set-info :smt-lib-version 2.6)
(set-logic ALL)
(set-info :source |
Generated on: 2026-06-22
Generator: ppTransSmt github.com/CLEARSY/pptranspog
Application: Discharging a proof obligation generated by aTelierB from an anonymized B machine
Target solver: CVC5
Time limit: 1200.0
|)
(set-info :license "www.gnu.org/licenses/gpl-3.0.en.html")
(set-info :category "industrial")
(set-info :status unknown)

; Prelude
(declare-sort P 1)
(declare-fun mem0 (Int (P Int)) Bool)
(declare-sort C 2)
(define-fun MinInt () Int (- 2147483648))
(define-fun MaxInt () Int 2147483647)
; Global declarations
(declare-fun g_s0_0 () (P Int))
(declare-fun g_s10_10 () Int)
(declare-fun g_s11_11 () (P (P (C Int Bool))))
(declare-fun g_s12_12 () (P (P (C Int Bool))))
(declare-fun g_s13_13 () (P (C (P (C Int Bool)) Int)))
(declare-fun g_s14_14 () (P (C (P (C Int Bool)) Int)))
(declare-fun g_s15_15 () (P (C (P (C Int Bool)) (P (C Int Bool)))))
(declare-fun g_s18_16 () (P Int))
(declare-fun g_s19_17 () (P Int))
(declare-fun g_s1_1 () Int)
(declare-fun g_s20_18 () (P Int))
(declare-fun g_s21_19 () (P Int))
(declare-fun g_s22_20 () (P Int))
(declare-fun g_s23_21 () (P (C Int Int)))
(declare-fun g_s24_22 () (P (C Int Int)))
(declare-fun g_s25_23 () Int)
(declare-fun g_s2_2 () Int)
(declare-fun g_s3_3 () (P Int))
(declare-fun g_s4_4 () (P Int))
(declare-fun g_s5_5 () (P (C Int Int)))
(declare-fun g_s6_6 () Int)
(declare-fun g_s7_7 () Int)
(declare-fun g_s8_8 () (P (C (C Bool Bool) Int)))
(declare-fun g_s9_9 () Int)
(declare-fun mem2 ( Int Int (P (C Int Int))) Bool)
(declare-fun mem3 ( Bool Bool Int (P (C (C Bool Bool) Int))) Bool)
(declare-fun mem4 ( (P (C Int Bool)) (P (P (C Int Bool)))) Bool)
(declare-fun mem5 ( Int Bool (P (C Int Bool))) Bool)
(declare-fun mem6 ( (P (C Int Bool)) Int (P (C (P (C Int Bool)) Int))) Bool)
(declare-fun mem7 ( (P (C Int Bool)) (P (C Int Bool)) (P (C (P (C Int Bool)) (P (C Int Bool))))) Bool)
; Defines
(define-fun |def_ctx_0| () Bool (and (forall ( (x_3 Int) ) (= (mem0 x_3 g_s0_0) (or  (= x_3 g_s1_1) (= x_3 g_s2_2)))) (distinct g_s1_1 g_s2_2)))
(define-fun |def_ctx_1| () Bool (and  (not (forall ( (x_4 Int) ) (= (mem0 x_4 g_s3_3) false))) (and  (forall ( (x_7 Int) ) (=> (mem0 x_7 g_s3_3) true)) (exists ( (x_5 Int) (x_6 (P (C Int Int))) ) (and (and (exists ( (x_8 (P (C Int Int))) ) (and (forall ( (x_9 Int) (x_10 Int) ) (= (mem2 x_10 x_9 x_8) (mem2 x_10 x_9 x_6))) (forall ( (x_11 Int) (x_12 Int) (x_13 Int) ) (=> (and  (mem2 x_11 x_12 x_8) (mem2 x_11 x_13 x_8)) (= x_12 x_13))) (forall ( (x_14 Int) ) (= (and (>= x_14 1) (<= x_14 x_5)) (exists ( (x_15 Int) ) (mem2 x_14 x_15 x_8)))) (forall ( (x_16 Int) ) (=> (exists ( (x_17 Int) ) (mem2 x_17 x_16 x_8)) (mem0 x_16 g_s3_3))))) (forall ( (x_18 Int) ) (=> (mem0 x_18 g_s3_3) (exists ( (x_19 Int) ) (mem2 x_19 x_18 x_6))))) (forall ( (x_20 Int) (x_21 Int) (x_22 Int) ) (=> (and  (mem2 x_21 x_20 x_6) (mem2 x_22 x_20 x_6)) (= x_21 x_22))))))))
(define-fun |def_ctx_2| () Bool (and  (not (forall ( (x_23 Int) ) (= (mem0 x_23 g_s4_4) false))) (and  (forall ( (x_26 Int) ) (=> (mem0 x_26 g_s4_4) true)) (exists ( (x_24 Int) (x_25 (P (C Int Int))) ) (and (and (exists ( (x_27 (P (C Int Int))) ) (and (forall ( (x_28 Int) (x_29 Int) ) (= (mem2 x_29 x_28 x_27) (mem2 x_29 x_28 x_25))) (forall ( (x_30 Int) (x_31 Int) (x_32 Int) ) (=> (and  (mem2 x_30 x_31 x_27) (mem2 x_30 x_32 x_27)) (= x_31 x_32))) (forall ( (x_33 Int) ) (= (and (>= x_33 1) (<= x_33 x_24)) (exists ( (x_34 Int) ) (mem2 x_33 x_34 x_27)))) (forall ( (x_35 Int) ) (=> (exists ( (x_36 Int) ) (mem2 x_36 x_35 x_27)) (mem0 x_35 g_s4_4))))) (forall ( (x_37 Int) ) (=> (mem0 x_37 g_s4_4) (exists ( (x_38 Int) ) (mem2 x_38 x_37 x_25))))) (forall ( (x_39 Int) (x_40 Int) (x_41 Int) ) (=> (and  (mem2 x_40 x_39 x_25) (mem2 x_41 x_39 x_25)) (= x_40 x_41))))))))
(define-fun |def_ctx_3| () Bool (exists ( (x_42 (P (C Int Int))) ) (and (forall ( (x_43 Int) (x_44 Int) ) (= (mem2 x_44 x_43 x_42) (mem2 x_44 x_43 g_s5_5))) (forall ( (x_45 Int) (x_46 Int) (x_47 Int) ) (=> (and  (mem2 x_45 x_46 x_42) (mem2 x_45 x_47 x_42)) (= x_46 x_47))) (forall ( (x_48 Int) ) (= (mem0 x_48 g_s3_3) (exists ( (x_49 Int) ) (mem2 x_48 x_49 x_42)))) (forall ( (x_50 Int) ) (=> (exists ( (x_51 Int) ) (mem2 x_51 x_50 x_42)) (mem0 x_50 g_s4_4))))))
(define-fun |def_ctx_4| () Bool (mem0 g_s6_6 g_s3_3))
(define-fun |def_ctx_5| () Bool (mem0 g_s7_7 g_s4_4))
(define-fun |def_ctx_6| () Bool (exists ( (x_52 (P (C (C Bool Bool) Int))) ) (and (forall ( (x_53 Int) (x_54 Bool) (x_55 Bool) ) (= (mem3 x_55 x_54 x_53 x_52) (mem3 x_55 x_54 x_53 g_s8_8))) (forall ( (x_56 Bool) (x_57 Bool) (x_58 Int) (x_59 Int) ) (=> (and  (mem3 x_57 x_56 x_58 x_52) (mem3 x_57 x_56 x_59 x_52)) (= x_58 x_59))) (forall ( (x_60 Bool) (x_61 Bool) ) (= (and true true) (exists ( (x_62 Int) ) (mem3 x_61 x_60 x_62 x_52)))) (forall ( (x_63 Int) ) (=> (exists ( (x_64 Bool) (x_65 Bool) ) (mem3 x_65 x_64 x_63 x_52)) (<= 0 x_63))))))
(define-fun |def_ctx_7| () Bool (forall ( (x_66 Int) (x_67 Bool) (x_68 Bool) ) (= (mem3 x_68 x_67 x_66 g_s8_8) (or  (and (and (= x_68 true) (= x_67 false)) (= x_66 4)) (and (and (= x_68 true) (= x_67 true)) (= x_66 3)) (and (and (= x_68 false) (= x_67 false)) (= x_66 2)) (and (and (= x_68 false) (= x_67 true)) (= x_66 1))))))
(define-fun |def_ctx_8| () Bool (< 0 g_s9_9))
(define-fun |def_ctx_9| () Bool (< 0 g_s10_10))
(define-fun |def_ctx_10| () Bool (forall ( (x_69 (P (C Int Bool))) ) (= (mem4 x_69 g_s11_11) (exists ( (x_70 (P (C Int Bool))) ) (and (forall ( (x_71 Bool) (x_72 Int) ) (= (mem5 x_72 x_71 x_70) (mem5 x_72 x_71 x_69))) (forall ( (x_73 Int) (x_74 Bool) (x_75 Bool) ) (=> (and  (mem5 x_73 x_74 x_70) (mem5 x_73 x_75 x_70)) (= x_74 x_75))) (forall ( (x_76 Int) ) (= (and (>= x_76 1) (<= x_76 g_s9_9)) (exists ( (x_77 Bool) ) (mem5 x_76 x_77 x_70)))) (forall ( (x_78 Bool) ) (=> (exists ( (x_79 Int) ) (mem5 x_79 x_78 x_70)) true)))))))
(define-fun |def_ctx_11| () Bool (forall ( (x_80 (P (C Int Bool))) ) (= (mem4 x_80 g_s12_12) (exists ( (x_81 (P (C Int Bool))) ) (and (forall ( (x_82 Bool) (x_83 Int) ) (= (mem5 x_83 x_82 x_81) (mem5 x_83 x_82 x_80))) (forall ( (x_84 Int) (x_85 Bool) (x_86 Bool) ) (=> (and  (mem5 x_84 x_85 x_81) (mem5 x_84 x_86 x_81)) (= x_85 x_86))) (forall ( (x_87 Int) ) (= (and (>= x_87 1) (<= x_87 g_s10_10)) (exists ( (x_88 Bool) ) (mem5 x_87 x_88 x_81)))) (forall ( (x_89 Bool) ) (=> (exists ( (x_90 Int) ) (mem5 x_90 x_89 x_81)) true)))))))
(define-fun |def_ctx_12| () Bool (and (and (exists ( (x_91 (P (C (P (C Int Bool)) Int))) ) (and (forall ( (x_92 Int) (x_93 (P (C Int Bool))) ) (= (mem6 x_93 x_92 x_91) (mem6 x_93 x_92 g_s13_13))) (forall ( (x_94 (P (C Int Bool))) (x_95 Int) (x_96 Int) ) (=> (and  (mem6 x_94 x_95 x_91) (mem6 x_94 x_96 x_91)) (= x_95 x_96))) (forall ( (x_97 (P (C Int Bool))) ) (= (mem4 x_97 g_s11_11) (exists ( (x_98 Int) ) (mem6 x_97 x_98 x_91)))) (forall ( (x_99 Int) ) (=> (exists ( (x_100 (P (C Int Bool))) ) (mem6 x_100 x_99 x_91)) (mem0 x_99 g_s3_3))))) (forall ( (x_101 Int) ) (=> (mem0 x_101 g_s3_3) (exists ( (x_102 (P (C Int Bool))) ) (mem6 x_102 x_101 g_s13_13))))) (forall ( (x_103 Int) (x_104 (P (C Int Bool))) (x_105 (P (C Int Bool))) ) (=> (and  (mem6 x_104 x_103 g_s13_13) (mem6 x_105 x_103 g_s13_13)) (forall ( (x_106 Bool) (x_107 Int) ) (= (mem5 x_107 x_106 x_104) (mem5 x_107 x_106 x_105)))))))
(define-fun |def_ctx_13| () Bool (and (and (exists ( (x_108 (P (C (P (C Int Bool)) Int))) ) (and (forall ( (x_109 Int) (x_110 (P (C Int Bool))) ) (= (mem6 x_110 x_109 x_108) (mem6 x_110 x_109 g_s14_14))) (forall ( (x_111 (P (C Int Bool))) (x_112 Int) (x_113 Int) ) (=> (and  (mem6 x_111 x_112 x_108) (mem6 x_111 x_113 x_108)) (= x_112 x_113))) (forall ( (x_114 (P (C Int Bool))) ) (= (mem4 x_114 g_s12_12) (exists ( (x_115 Int) ) (mem6 x_114 x_115 x_108)))) (forall ( (x_116 Int) ) (=> (exists ( (x_117 (P (C Int Bool))) ) (mem6 x_117 x_116 x_108)) (mem0 x_116 g_s4_4))))) (forall ( (x_118 Int) ) (=> (mem0 x_118 g_s4_4) (exists ( (x_119 (P (C Int Bool))) ) (mem6 x_119 x_118 g_s14_14))))) (forall ( (x_120 Int) (x_121 (P (C Int Bool))) (x_122 (P (C Int Bool))) ) (=> (and  (mem6 x_121 x_120 g_s14_14) (mem6 x_122 x_120 g_s14_14)) (forall ( (x_123 Bool) (x_124 Int) ) (= (mem5 x_124 x_123 x_121) (mem5 x_124 x_123 x_122)))))))
(define-fun |def_ctx_14| () Bool (exists ( (x_125 (P (C (P (C Int Bool)) (P (C Int Bool))))) ) (and (forall ( (x_126 (P (C Int Bool))) (x_127 (P (C Int Bool))) ) (= (mem7 x_127 x_126 x_125) (mem7 x_127 x_126 g_s15_15))) (forall ( (x_128 (P (C Int Bool))) (x_129 (P (C Int Bool))) (x_130 (P (C Int Bool))) ) (=> (and  (mem7 x_128 x_129 x_125) (mem7 x_128 x_130 x_125)) (forall ( (x_131 Bool) (x_132 Int) ) (= (mem5 x_132 x_131 x_129) (mem5 x_132 x_131 x_130))))) (forall ( (x_133 (P (C Int Bool))) ) (= (mem4 x_133 g_s11_11) (exists ( (x_134 (P (C Int Bool))) ) (mem7 x_133 x_134 x_125)))) (forall ( (x_135 (P (C Int Bool))) ) (=> (exists ( (x_136 (P (C Int Bool))) ) (mem7 x_136 x_135 x_125)) (mem4 x_135 g_s12_12))))))
(define-fun |def_ctx_15| () Bool (forall ( (x_137 (P (C Int Bool))) (x_138 (P (C Int Bool))) ) (= (mem7 x_138 x_137 g_s15_15) (exists ( (x_139 Int) ) (and  (exists ( (x_140 Int) ) (and  (mem6 x_138 x_140 g_s13_13) (mem2 x_140 x_139 g_s5_5))) (mem6 x_137 x_139 g_s14_14))))))
(define-fun |def_ctx_16| () Bool (forall ((x_141 (P (C Int Bool))) ) (=> (forall ( (x_142 Bool) (x_143 Int) ) (= (mem5 x_143 x_142 x_141) (and (and (>= x_143 1) (<= x_143 g_s9_9)) (= x_142 false)))) (mem6 x_141 g_s6_6 g_s13_13))))
(define-fun |def_ctx_17| () Bool (forall ((x_144 (P (C Int Bool))) ) (=> (forall ( (x_145 Bool) (x_146 Int) ) (= (mem5 x_146 x_145 x_144) (and (and (>= x_146 1) (<= x_146 g_s10_10)) (= x_145 false)))) (mem6 x_144 g_s7_7 g_s14_14))))
(define-fun |def_seext_0| () Bool (forall ( (x_147 (P (C Int Bool))) (x_148 Int) ) (= (exists ( (x_149 Int) ) (and  (exists ( (x_150 Int) ) (and  (exists ( (x_151 (P (C Int Bool))) ) (and  (mem6 x_151 x_148 g_s13_13) (mem6 x_151 x_150 g_s13_13))) (mem2 x_150 x_149 g_s5_5))) (mem6 x_147 x_149 g_s14_14))) (exists ( (x_152 Int) ) (and  (mem2 x_148 x_152 g_s5_5) (mem6 x_147 x_152 g_s14_14))))))
(define-fun |def_seext_1| () Bool (forall ( (l_s16 Int) (l_s17 (P (C Int Bool))) ) (=> (and  (mem0 l_s16 g_s3_3) (mem4 l_s17 g_s12_12) (forall ((x_153 Int) ) (=> (mem2 l_s16 x_153 g_s5_5) (mem6 l_s17 x_153 g_s14_14)))) (forall ((x_154 (P (C Int Bool))) ) (=> (mem6 x_154 l_s16 g_s13_13) (mem7 x_154 l_s17 g_s15_15))))))
(define-fun |def_lprp_0| () Bool (and  (not (forall ( (x_155 Int) ) (= (mem0 x_155 g_s18_16) false))) (and  (forall ( (x_158 Int) ) (=> (mem0 x_158 g_s18_16) true)) (exists ( (x_156 Int) (x_157 (P (C Int Int))) ) (and (and (exists ( (x_159 (P (C Int Int))) ) (and (forall ( (x_160 Int) (x_161 Int) ) (= (mem2 x_161 x_160 x_159) (mem2 x_161 x_160 x_157))) (forall ( (x_162 Int) (x_163 Int) (x_164 Int) ) (=> (and  (mem2 x_162 x_163 x_159) (mem2 x_162 x_164 x_159)) (= x_163 x_164))) (forall ( (x_165 Int) ) (= (and (>= x_165 1) (<= x_165 x_156)) (exists ( (x_166 Int) ) (mem2 x_165 x_166 x_159)))) (forall ( (x_167 Int) ) (=> (exists ( (x_168 Int) ) (mem2 x_168 x_167 x_159)) (mem0 x_167 g_s18_16))))) (forall ( (x_169 Int) ) (=> (mem0 x_169 g_s18_16) (exists ( (x_170 Int) ) (mem2 x_170 x_169 x_157))))) (forall ( (x_171 Int) (x_172 Int) (x_173 Int) ) (=> (and  (mem2 x_172 x_171 x_157) (mem2 x_173 x_171 x_157)) (= x_172 x_173))))))))
(define-fun |def_lprp_1| () Bool (and  (not (forall ( (x_174 Int) ) (= (mem0 x_174 g_s19_17) false))) (and  (forall ( (x_177 Int) ) (=> (mem0 x_177 g_s19_17) true)) (exists ( (x_175 Int) (x_176 (P (C Int Int))) ) (and (and (exists ( (x_178 (P (C Int Int))) ) (and (forall ( (x_179 Int) (x_180 Int) ) (= (mem2 x_180 x_179 x_178) (mem2 x_180 x_179 x_176))) (forall ( (x_181 Int) (x_182 Int) (x_183 Int) ) (=> (and  (mem2 x_181 x_182 x_178) (mem2 x_181 x_183 x_178)) (= x_182 x_183))) (forall ( (x_184 Int) ) (= (and (>= x_184 1) (<= x_184 x_175)) (exists ( (x_185 Int) ) (mem2 x_184 x_185 x_178)))) (forall ( (x_186 Int) ) (=> (exists ( (x_187 Int) ) (mem2 x_187 x_186 x_178)) (mem0 x_186 g_s19_17))))) (forall ( (x_188 Int) ) (=> (mem0 x_188 g_s19_17) (exists ( (x_189 Int) ) (mem2 x_189 x_188 x_176))))) (forall ( (x_190 Int) (x_191 Int) (x_192 Int) ) (=> (and  (mem2 x_191 x_190 x_176) (mem2 x_192 x_190 x_176)) (= x_191 x_192))))))))
(define-fun |def_lprp_2| () Bool (and  (not (forall ( (x_193 Int) ) (= (mem0 x_193 g_s20_18) false))) (and  (forall ( (x_196 Int) ) (=> (mem0 x_196 g_s20_18) true)) (exists ( (x_194 Int) (x_195 (P (C Int Int))) ) (and (and (exists ( (x_197 (P (C Int Int))) ) (and (forall ( (x_198 Int) (x_199 Int) ) (= (mem2 x_199 x_198 x_197) (mem2 x_199 x_198 x_195))) (forall ( (x_200 Int) (x_201 Int) (x_202 Int) ) (=> (and  (mem2 x_200 x_201 x_197) (mem2 x_200 x_202 x_197)) (= x_201 x_202))) (forall ( (x_203 Int) ) (= (and (>= x_203 1) (<= x_203 x_194)) (exists ( (x_204 Int) ) (mem2 x_203 x_204 x_197)))) (forall ( (x_205 Int) ) (=> (exists ( (x_206 Int) ) (mem2 x_206 x_205 x_197)) (mem0 x_205 g_s20_18))))) (forall ( (x_207 Int) ) (=> (mem0 x_207 g_s20_18) (exists ( (x_208 Int) ) (mem2 x_208 x_207 x_195))))) (forall ( (x_209 Int) (x_210 Int) (x_211 Int) ) (=> (and  (mem2 x_210 x_209 x_195) (mem2 x_211 x_209 x_195)) (= x_210 x_211))))))))
(define-fun |def_lprp_3| () Bool (forall ( (x_212 Int) ) (=> (mem0 x_212 g_s21_19) (mem0 x_212 g_s19_17))))
(define-fun |def_lprp_4| () Bool (forall ( (x_213 Int) ) (=> (mem0 x_213 g_s22_20) (mem0 x_213 g_s20_18))))
(define-fun |def_lprp_5| () Bool (and (and (exists ( (x_214 (P (C Int Int))) ) (and (forall ( (x_215 Int) (x_216 Int) ) (= (mem2 x_216 x_215 x_214) (mem2 x_216 x_215 g_s23_21))) (forall ( (x_217 Int) (x_218 Int) (x_219 Int) ) (=> (and  (mem2 x_217 x_218 x_214) (mem2 x_217 x_219 x_214)) (= x_218 x_219))) (forall ( (x_220 Int) ) (= (mem0 x_220 g_s21_19) (exists ( (x_221 Int) ) (mem2 x_220 x_221 x_214)))) (forall ( (x_222 Int) ) (=> (exists ( (x_223 Int) ) (mem2 x_223 x_222 x_214)) (and (>= x_222 1) (<= x_222 g_s9_9)))))) (forall ( (x_224 Int) ) (=> (and (>= x_224 1) (<= x_224 g_s9_9)) (exists ( (x_225 Int) ) (mem2 x_225 x_224 g_s23_21))))) (forall ( (x_226 Int) (x_227 Int) (x_228 Int) ) (=> (and  (mem2 x_227 x_226 g_s23_21) (mem2 x_228 x_226 g_s23_21)) (= x_227 x_228)))))
(define-fun |def_lprp_6| () Bool (and (and (exists ( (x_229 (P (C Int Int))) ) (and (forall ( (x_230 Int) (x_231 Int) ) (= (mem2 x_231 x_230 x_229) (mem2 x_231 x_230 g_s24_22))) (forall ( (x_232 Int) (x_233 Int) (x_234 Int) ) (=> (and  (mem2 x_232 x_233 x_229) (mem2 x_232 x_234 x_229)) (= x_233 x_234))) (forall ( (x_235 Int) ) (= (mem0 x_235 g_s22_20) (exists ( (x_236 Int) ) (mem2 x_235 x_236 x_229)))) (forall ( (x_237 Int) ) (=> (exists ( (x_238 Int) ) (mem2 x_238 x_237 x_229)) (and (>= x_237 1) (<= x_237 g_s10_10)))))) (forall ( (x_239 Int) ) (=> (and (>= x_239 1) (<= x_239 g_s10_10)) (exists ( (x_240 Int) ) (mem2 x_240 x_239 g_s24_22))))) (forall ( (x_241 Int) (x_242 Int) (x_243 Int) ) (=> (and  (mem2 x_242 x_241 g_s24_22) (mem2 x_243 x_241 g_s24_22)) (= x_242 x_243)))))
(define-fun |def_lprp_7| () Bool (mem0 g_s25_23 g_s18_16))
(define-fun |def_ass_0| () Bool (not (forall ( (x_244 Int) ) (= (mem0 x_244 g_s21_19) false))))
(define-fun |def_ass_1| () Bool (not (forall ( (x_245 Int) ) (= (mem0 x_245 g_s22_20) false))))
(define-fun |def_sets_0| () Bool (and  (not (forall ( (x_246 Int) ) (= (mem0 x_246 g_s18_16) false))) (and  (forall ( (x_249 Int) ) (=> (mem0 x_249 g_s18_16) true)) (exists ( (x_247 Int) (x_248 (P (C Int Int))) ) (and (and (exists ( (x_250 (P (C Int Int))) ) (and (forall ( (x_251 Int) (x_252 Int) ) (= (mem2 x_252 x_251 x_250) (mem2 x_252 x_251 x_248))) (forall ( (x_253 Int) (x_254 Int) (x_255 Int) ) (=> (and  (mem2 x_253 x_254 x_250) (mem2 x_253 x_255 x_250)) (= x_254 x_255))) (forall ( (x_256 Int) ) (= (and (>= x_256 1) (<= x_256 x_247)) (exists ( (x_257 Int) ) (mem2 x_256 x_257 x_250)))) (forall ( (x_258 Int) ) (=> (exists ( (x_259 Int) ) (mem2 x_259 x_258 x_250)) (mem0 x_258 g_s18_16))))) (forall ( (x_260 Int) ) (=> (mem0 x_260 g_s18_16) (exists ( (x_261 Int) ) (mem2 x_261 x_260 x_248))))) (forall ( (x_262 Int) (x_263 Int) (x_264 Int) ) (=> (and  (mem2 x_263 x_262 x_248) (mem2 x_264 x_262 x_248)) (= x_263 x_264))))))))
(define-fun |def_sets_1| () Bool (and  (not (forall ( (x_265 Int) ) (= (mem0 x_265 g_s19_17) false))) (and  (forall ( (x_268 Int) ) (=> (mem0 x_268 g_s19_17) true)) (exists ( (x_266 Int) (x_267 (P (C Int Int))) ) (and (and (exists ( (x_269 (P (C Int Int))) ) (and (forall ( (x_270 Int) (x_271 Int) ) (= (mem2 x_271 x_270 x_269) (mem2 x_271 x_270 x_267))) (forall ( (x_272 Int) (x_273 Int) (x_274 Int) ) (=> (and  (mem2 x_272 x_273 x_269) (mem2 x_272 x_274 x_269)) (= x_273 x_274))) (forall ( (x_275 Int) ) (= (and (>= x_275 1) (<= x_275 x_266)) (exists ( (x_276 Int) ) (mem2 x_275 x_276 x_269)))) (forall ( (x_277 Int) ) (=> (exists ( (x_278 Int) ) (mem2 x_278 x_277 x_269)) (mem0 x_277 g_s19_17))))) (forall ( (x_279 Int) ) (=> (mem0 x_279 g_s19_17) (exists ( (x_280 Int) ) (mem2 x_280 x_279 x_267))))) (forall ( (x_281 Int) (x_282 Int) (x_283 Int) ) (=> (and  (mem2 x_282 x_281 x_267) (mem2 x_283 x_281 x_267)) (= x_282 x_283))))))))
(define-fun |def_sets_2| () Bool (and  (not (forall ( (x_284 Int) ) (= (mem0 x_284 g_s20_18) false))) (and  (forall ( (x_287 Int) ) (=> (mem0 x_287 g_s20_18) true)) (exists ( (x_285 Int) (x_286 (P (C Int Int))) ) (and (and (exists ( (x_288 (P (C Int Int))) ) (and (forall ( (x_289 Int) (x_290 Int) ) (= (mem2 x_290 x_289 x_288) (mem2 x_290 x_289 x_286))) (forall ( (x_291 Int) (x_292 Int) (x_293 Int) ) (=> (and  (mem2 x_291 x_292 x_288) (mem2 x_291 x_293 x_288)) (= x_292 x_293))) (forall ( (x_294 Int) ) (= (and (>= x_294 1) (<= x_294 x_285)) (exists ( (x_295 Int) ) (mem2 x_294 x_295 x_288)))) (forall ( (x_296 Int) ) (=> (exists ( (x_297 Int) ) (mem2 x_297 x_296 x_288)) (mem0 x_296 g_s20_18))))) (forall ( (x_298 Int) ) (=> (mem0 x_298 g_s20_18) (exists ( (x_299 Int) ) (mem2 x_299 x_298 x_286))))) (forall ( (x_300 Int) (x_301 Int) (x_302 Int) ) (=> (and  (mem2 x_301 x_300 x_286) (mem2 x_302 x_300 x_286)) (= x_301 x_302))))))))
; PO group s26
(assert (! |def_ctx_0| :named |ctx0|))
(assert (! |def_ctx_1| :named |ctx1|))
(assert (! |def_ctx_2| :named |ctx2|))
(assert (! |def_ctx_3| :named |ctx3|))
(assert (! |def_ctx_4| :named |ctx4|))
(assert (! |def_ctx_5| :named |ctx5|))
(assert (! |def_ctx_6| :named |ctx6|))
(assert (! |def_ctx_7| :named |ctx7|))
(assert (! |def_ctx_8| :named |ctx8|))
(assert (! |def_ctx_9| :named |ctx9|))
(assert (! |def_ctx_10| :named |ctx10|))
(assert (! |def_ctx_11| :named |ctx11|))
(assert (! |def_ctx_12| :named |ctx12|))
(assert (! |def_ctx_13| :named |ctx13|))
(assert (! |def_ctx_14| :named |ctx14|))
(assert (! |def_ctx_15| :named |ctx15|))
(assert (! |def_ctx_16| :named |ctx16|))
(assert (! |def_ctx_17| :named |ctx17|))
(assert (! |def_lprp_0| :named |lprp0|))
(assert (! |def_lprp_1| :named |lprp1|))
(assert (! |def_lprp_2| :named |lprp2|))
(assert (! |def_lprp_3| :named |lprp3|))
(assert (! |def_lprp_4| :named |lprp4|))
(assert (! |def_lprp_5| :named |lprp5|))
(assert (! |def_lprp_6| :named |lprp6|))
(assert (! |def_lprp_7| :named |lprp7|))
(assert (! |def_seext_0| :named |seext0|))
(assert (! |def_seext_1| :named |seext1|))
; PO 1 in group s26
(assert (! (not (not (forall ( (x_303 Int) ) (= (mem0 x_303 g_s22_20) false)))) :named goal))
(check-sat)
(exit)
